max_width = 15;
n_blocks = 25;
width = [7, 6, 6, 7, 3, 3, 3, 3, 3, 2, 3, 3, 2, 2, 2, 2, 2, 2, 1, 2, 1, 1, 1, 1, 1];
height = [12, 12, 9, 7, 16, 16, 10, 10, 9, 12, 5, 5, 7, 7, 6, 5, 5, 4, 7, 3, 6, 5, 5, 4, 3];
